This is Ipopt version 3.10.0, running with linear solver ma27.

Number of nonzeros in equality constraint Jacobian...:        0
Number of nonzeros in inequality constraint Jacobian.:       48
Number of nonzeros in Lagrangian Hessian.............:        0

Total number of variables............................:        6
                     variables with only lower bounds:        0
                variables with lower and upper bounds:        6
                     variables with only upper bounds:        0
Total number of equality constraints.................:        0
Total number of inequality constraints...............:        8
        inequality constraints with only lower bounds:        0
   inequality constraints with lower and upper bounds:        0
        inequality constraints with only upper bounds:        8

iter    objective    inf_pr   inf_du lg(mu)  ||d||  lg(rg) alpha_du alpha_pr  ls
   0  7.6646534e+00 2.30e+00 1.26e+00   0.0 0.00e+00    -  0.00e+00 0.00e+00   0
   1  9.3156703e+00 1.55e+00 1.05e+01  -0.5 1.49e+00    -  4.81e-01 4.54e-01f  1
   2  9.7428992e+00 7.11e-01 8.43e+00  -0.4 9.78e-01    -  9.23e-01 5.50e-01h  1
   3  1.1783367e+01 5.11e-01 1.48e+01  -0.3 1.07e+00    -  6.67e-01 4.53e-01h  1
   4  1.4083185e+01 1.60e-01 6.72e+00  -0.6 1.32e+00    -  7.57e-01 1.00e+00h  1
   5  1.5136955e+01 4.08e-02 3.81e+00  -1.2 4.33e-01    -  1.00e+00 8.92e-01h  1
   6  1.5306438e+01 2.21e-02 2.74e+00  -2.1 3.05e-01    -  9.99e-01 7.77e-01h  1
   7  1.5255910e+01 4.68e-03 9.39e-01  -2.5 8.79e-02    -  1.00e+00 7.28e-01h  1
   8  1.5276112e+01 2.65e-03 1.97e+00  -3.7 6.75e-02    -  1.00e+00 5.67e-01h  1
   9  1.5319622e+01 1.02e-03 1.05e+00  -4.7 5.19e-02    -  1.00e+00 9.41e-01h  1
iter    objective    inf_pr   inf_du lg(mu)  ||d||  lg(rg) alpha_du alpha_pr  ls
  10  1.5348045e+01 8.25e-06 8.18e-01  -5.6 6.74e-02    -  1.00e+00 1.00e+00H  1
  11  1.5341846e+01 5.74e-04 2.63e-01  -4.3 4.44e-02    -  1.00e+00 1.00e+00h  1
  12  1.5354332e+01 0.00e+00 6.47e-02  -5.8 8.14e-03    -  1.00e+00 1.00e+00h  1
  13  1.5351667e+01 3.06e-05 1.09e-02  -7.7 8.92e-04    -  1.00e+00 1.00e+00h  1
  14  1.5352666e+01 0.00e+00 1.25e-02  -9.4 3.22e-04    -  1.00e+00 1.00e+00h  1
  15  1.5351898e+01 1.14e-04 4.25e-03 -11.0 2.37e-04    -  1.00e+00 1.00e+00h  1
  16  1.5350868e+01 1.45e-04 1.23e-02 -11.0 7.28e-04    -  1.00e+00 1.00e+00H  1
  17  1.5353022e+01 0.00e+00 6.59e-03 -11.0 7.80e-04    -  1.00e+00 1.00e+00h  1
  18  1.5352426e+01 0.00e+00 6.57e-03 -11.0 1.79e-04    -  1.00e+00 1.00e+00h  1
  19  1.5351295e+01 1.08e-04 1.75e-02 -11.0 3.99e-04    -  1.00e+00 1.00e+00h  1
iter    objective    inf_pr   inf_du lg(mu)  ||d||  lg(rg) alpha_du alpha_pr  ls
  20  1.5352687e+01 0.00e+00 6.49e-03 -11.0 1.32e-03    -  1.00e+00 5.00e-01h  2
  21  1.5352347e+01 4.71e-05 2.66e-02 -11.0 2.43e-04    -  1.00e+00 1.00e+00h  1
  22  1.5353337e+01 1.25e-04 9.66e-03 -11.0 6.50e-04    -  1.00e+00 1.00e+00h  1
  23  1.5353296e+01 0.00e+00 1.33e-02 -11.0 1.43e-03    -  1.00e+00 1.00e+00h  1
  24  1.5352187e+01 4.33e-05 2.04e-02 -11.0 8.10e-04    -  1.00e+00 1.00e+00H  1
  25  1.5353164e+01 3.92e-05 6.44e-03 -11.0 4.50e-04    -  1.00e+00 1.00e+00h  1
  26  1.5351141e+01 1.53e-04 7.83e-03 -11.0 3.04e-04    -  1.00e+00 1.00e+00H  1
  27  1.5352107e+01 3.20e-05 3.89e-03 -11.0 9.79e-04    -  1.00e+00 5.00e-01h  2
  28  1.5351944e+01 1.85e-05 1.45e-02 -11.0 1.89e-04    -  1.00e+00 5.00e-01h  2
  29  1.5351230e+01 1.03e-04 8.29e-03 -11.0 2.23e-04    -  1.00e+00 1.00e+00H  1
iter    objective    inf_pr   inf_du lg(mu)  ||d||  lg(rg) alpha_du alpha_pr  ls
  30  1.5353843e+01 0.00e+00 1.27e-02 -11.0 7.97e-04    -  1.00e+00 1.00e+00h  1
  31  1.5352036e+01 0.00e+00 2.72e-03 -11.0 4.04e-04    -  1.00e+00 1.00e+00h  1
  32  1.5351844e+01 1.35e-04 5.81e-03 -11.0 2.65e-04    -  1.00e+00 1.00e+00h  1
  33  1.5353024e+01 0.00e+00 3.64e-03 -11.0 6.34e-04    -  1.00e+00 1.00e+00h  1
  34  1.5352370e+01 8.01e-05 6.34e-03 -11.0 4.75e-04    -  1.00e+00 5.00e-01h  2
  35  1.5353734e+01 0.00e+00 6.41e-03 -11.0 1.49e-04    -  1.00e+00 1.00e+00H  1
  36  1.5350390e+01 2.96e-04 2.23e-01 -11.0 1.60e-03    -  1.00e+00 1.00e+00H  1
  37  1.5350620e+01 2.27e-05 1.56e-02 -11.0 1.90e-03    -  1.00e+00 1.00e+00h  1
  38  1.5352941e+01 0.00e+00 2.31e-02 -11.0 3.80e-04    -  1.00e+00 1.00e+00H  1
  39  1.5352088e+01 1.04e-04 3.21e-02 -11.0 1.89e-04    -  1.00e+00 1.00e+00h  1
iter    objective    inf_pr   inf_du lg(mu)  ||d||  lg(rg) alpha_du alpha_pr  ls
  40  1.5352704e+01 0.00e+00 1.85e-02 -11.0 4.63e-04    -  1.00e+00 1.00e+00h  1
  41  1.5352101e+01 3.29e-05 1.24e-02 -11.0 2.72e-04    -  1.00e+00 1.00e+00h  1
  42  1.5351403e+01 6.73e-05 1.04e-02 -11.0 3.57e-04    -  1.00e+00 1.00e+00h  1
